##TITLE=Ibuprofen
##JCAMP-DX=4.24
##DATA TYPE=MASS SPECTRUM
##ORIGIN=NIST Mass Spectrometry Data Center
##OWNER=NIST Mass Spectrometry Data Center
Collection (C) 2014 copyright by the U.S. Secretary of Commerce
on behalf of the United States of America. All rights reserved.
##CAS REGISTRY NO=15687-27-1
##$NIST MASS SPEC NO=352144
##MOLFORM=C13 H18 O2
##MW=206
##$NIST SOURCE=MSDC
##XUNITS=M/Z
##YUNITS=RELATIVE INTENSITY
##XFACTOR=1
##YFACTOR=1
##FIRSTX=15
##LASTX=208
##FIRSTY=20
##MAXX=208
##MINX=15
##MAXY=9999
##MINY=10
##NPOINTS=126
##PEAK TABLE=(XY..XY)
15,20 26,20 27,460 28,50
29,200 30,10 31,30 36,10
37,10 38,50 39,751 40,80
41,1511 42,90 43,1371 44,90
45,540 46,10 47,10 50,190
51,611 52,150 53,270 54,10
55,270 56,30 57,550 58,90
59,20 60,10 61,10 62,70
63,370 64,130 65,651 66,60
67,50 68,10 69,190 70,20
71,50 72,30 73,20 74,70
75,110 76,100 77,1171 78,450
79,460 80,40 81,20 86,20
87,40 88,20 89,420 90,180
91,6996 92,631 93,200 94,20
95,20 97,30 98,10 99,10
100,60 101,50 102,280 103,891
104,571 105,1401 106,170 107,4664
108,360 109,20 113,20 115,2122
116,601 117,4794 118,3023 119,5545
120,561 121,60 122,10 123,10
126,30 127,170 128,510 129,300
130,120 131,410 132,70 133,240
134,40 135,40 139,20 141,70
142,30 143,50 144,20 145,490
146,80 147,70 148,20 149,30
150,40 151,10 157,10 158,10
159,130 161,9999 162,1371 163,8848
164,2012 165,230 166,20 177,20
188,20 189,10 190,10 191,120
192,10 204,10 205,40 206,3833
207,520 208,50
##END=
