##TITLE=Eicosane
##JCAMP-DX=4.24
##DATA TYPE=MASS SPECTRUM
##ORIGIN=NIST Mass Spectrometry Data Center
##OWNER=NIST Mass Spectrometry Data Center
Collection (C) 2014 copyright by the U.S. Secretary of Commerce
on behalf of the United States of America. All rights reserved.
##CAS REGISTRY NO=112-95-8
##$NIST MASS SPEC NO=341441
##MOLFORM=C20 H42
##MW=282
##$NIST SOURCE=MSDC
##XUNITS=M/Z
##YUNITS=RELATIVE INTENSITY
##XFACTOR=1
##YFACTOR=1
##FIRSTX=26
##LASTX=283
##FIRSTY=10
##MAXX=283
##MINX=26
##MAXY=9999
##MINY=10
##NPOINTS=85
##PEAK TABLE=(XY..XY)
26,10 27,280 29,921 30,20
39,310 40,80 41,3133 42,761
43,6306 44,210 51,10 53,170
54,260 55,2682 56,1531 57,9999
58,470 65,30 66,20 67,290
68,240 69,1501 70,1291 71,7727
72,440 77,20 79,40 80,10
81,100 82,300 83,1091 84,861
85,6055 86,400 87,10 95,30
96,170 97,901 98,641 99,2022
100,150 109,10 110,100 111,500
112,540 113,1381 114,110 124,50
125,230 126,460 127,961 128,90
138,20 139,70 140,380 141,701
142,70 152,10 153,30 154,300
155,500 156,50 167,10 168,250
169,380 170,40 182,180 183,280
184,30 196,140 197,230 198,30
210,100 211,200 212,30 224,80
225,170 226,20 238,40 239,90
240,10 252,20 253,50 282,380
283,80
##END=
