##TITLE=1-Propanol
##JCAMP-DX=4.24
##DATA TYPE=MASS SPECTRUM
##ORIGIN=NIST Mass Spectrometry Data Center, 1990.
##OWNER=NIST Mass Spectrometry Data Center
Collection (C) 2014 copyright by the U.S. Secretary of Commerce
on behalf of the United States of America. All rights reserved.
##CAS REGISTRY NO=71-23-8
##$NIST MASS SPEC NO=113122
##MOLFORM=C3 H8 O
##MW=60
##$NIST SOURCE=MSDC
##XUNITS=M/Z
##YUNITS=RELATIVE INTENSITY
##XFACTOR=1
##YFACTOR=1
##FIRSTX=13
##LASTX=61
##FIRSTY=23
##MAXX=61
##MINX=13
##MAXY=9999
##MINY=10
##NPOINTS=32
##PEAK TABLE=(XY..XY)
13,23 14,83 15,245 16,10
18,30 19,82 24,17 25,81
26,552 27,1628 28,643 29,1766
30,10 31,9999 32,195 33,109
36,27 37,122 38,196 39,658
40,143 41,854 42,1350 43,404
44,72 45,164 53,26 55,51
57,98 59,1093 60,664 61,20
##END=
